0 99 108
1 93 115
2 111 112
3 110 115
4 108 112
5 105 108
6 99 107
7 96 105
8 109 110
9 105 109
10 93 104
11 105 105
12 99 103
13 86 106
14 72 102
15 52 100
16 72 93
17 72 88
18 82 88
19 81 87
20 86 86
21 55 81
22 28 79
23 76 76
24 58 69
25 63 67
26 55 64
27 36 62
28 55 61
29 57 62
30 57 62
31 47 57
32 56 58
33 38 56
34 46 55
35 48 53
36 41 52
37 41 50
38 43 47
39 38 45
40 44 46
41 36 45
42 36 48
43 36 44
44 36 39
45 29 37
46 32 35
47 31 38
48 32 35
49 30 35
50 22 32
51 25 29
52 14 29
53 27 32
54 17 30
55 22 26
56 8 21
57 5 18
58 11 12
59 7 9
60 5 8
61 4 8
62 4 7
63 7 7
64 4 5
65 1 5
66 2 2
67 1 1

